c Output_time 26.03.2020 18:15:13_+0100 1585242913256149138
c ** Program information **
c program_name                          "QBRG_debug"
c version                               "0.3.20"
c date                                  "25.3.2020"
c gid_id                                "673970833836058123f633335630c185360d632e"
c author                                "Oliver Kullmann"
c url                                   "https://github.com/OKullmann/oklibrary/blob/master/Satisfiability/Transformers/Generators/Random/QBRG.cpp"
c ** Machine information **
c machine_name                          "chyna-Lenovo-G50-70"
c bogomips                              3791.08
c ** Compilation information **
c compiler_version                      "g++ 7.5.0"
c compilation_date                      "Mar_26_2020 11:16:30"
c compilation_options                   "--std=c++17 -pedantic -fmax-errors=5 -Wall -Wextra -g -D_GLIBCXX_DEBUG"
c NDEBUG                                0
c OPTIMIZE                              0
c ** Parameters **
c command-line                          "./QBRG_debug" "a40 e40 a40 40" "265*1,1|2-2,1|3-3,1|4-4,1" "" "1,t" ""
c output                                "QuBlRaGe_160_265_1585242913256001397.qdimacs"
c options                               "filtered,renamed"
c num_quantifier_blocks                 4
c  quantifier_blocks                    1:a1-40 2:e41-80 3:a81-120 4:e121-160
c num_clause-blocks                     1
c  clause-blocks                        265 * {1-40,1,1/2} | {41-80,1,1/2} | {81-120,1,1/2} | {121-160,1,1/2}
c num_e-seeds                           37+2=39
c  e-seeds                              1 0 1 0 5 160 2 40 0 40 1 40 0 40 1 265 4 1 1 1 1 2 2 2 1 1 2 3 3 1 1 2 4 4 1 1 2 1 1585242913256000760
p cnf 160 265
a 1 2 3 4 5 6 7 8 9 10 11 12 13 14 15 16 17 18 19 20 21 22 23 24 25 26 27 28 29 30 31 32 33 34 35 36 37 38 39 40 0
e 41 42 43 44 45 46 47 48 49 50 51 52 53 54 55 56 57 58 59 60 61 62 63 64 65 66 67 68 69 70 71 72 73 74 75 76 77 78 79 80 0
a 81 82 83 84 85 86 87 88 89 90 91 92 93 94 95 96 97 98 99 100 101 102 103 104 105 106 107 108 109 110 111 112 113 114 115 116 117 118 119 120 0
e 121 122 123 124 125 126 127 128 129 130 131 132 133 134 135 136 137 138 139 140 141 142 143 144 145 146 147 148 149 150 151 152 153 154 155 156 157 158 159 160 0
7 -66 -81 -121 0
2 -65 -92 -121 0
9 52 -95 -121 0
26 41 101 -121 0
-7 -48 101 -121 0
-36 -75 109 -121 0
-38 41 87 121 0
-18 -69 88 121 0
-2 51 -98 121 0
1 -57 -98 121 0
-32 49 -81 -122 0
28 -59 93 -122 0
-6 -68 94 -122 0
-40 -60 98 122 0
12 46 -113 122 0
-39 -61 115 122 0
25 -45 116 122 0
-19 74 -99 -123 0
-33 46 -103 -124 0
-15 -53 -81 124 0
-13 46 -103 124 0
-8 -46 111 124 0
-29 -70 89 -125 0
20 -59 112 -125 0
-35 49 82 125 0
29 -68 89 125 0
31 45 90 125 0
-28 -41 92 125 0
-33 -69 97 125 0
-32 -67 89 -126 0
-20 54 114 -126 0
-14 43 -87 126 0
-21 59 88 126 0
34 -54 -104 126 0
-15 -76 -93 -127 0
-16 46 -111 -127 0
-2 -44 113 -127 0
19 -64 94 127 0
-17 -67 -96 127 0
-5 70 96 127 0
38 45 -97 127 0
14 69 -117 127 0
-18 63 -86 -128 0
22 -66 89 -128 0
-39 -63 109 -128 0
-31 -60 -88 128 0
38 47 92 128 0
17 -72 -94 128 0
38 44 -102 128 0
40 -54 100 -129 0
22 43 113 -129 0
3 48 92 129 0
-22 56 114 129 0
-26 -41 103 -130 0
10 -78 103 -130 0
5 -49 109 -130 0
-29 -64 -120 -130 0
-14 61 -93 130 0
12 56 108 130 0
-15 -79 108 130 0
31 -52 -116 130 0
-36 42 -101 -131 0
-5 -71 -105 -131 0
-21 73 -116 -131 0
12 -64 -86 131 0
27 -48 -97 131 0
-39 -70 -99 131 0
-26 -52 100 131 0
-32 47 120 131 0
-13 -43 -103 -132 0
33 -69 106 -132 0
-10 58 -94 132 0
31 -58 -108 132 0
-25 -48 -119 132 0
4 -73 119 132 0
-20 -65 85 -133 0
20 -52 -92 -133 0
-30 42 -100 -133 0
-4 -77 103 -133 0
-6 53 100 133 0
-29 54 -106 133 0
25 53 94 -134 0
40 -57 84 134 0
-37 72 91 134 0
-29 77 -92 134 0
16 -50 -118 134 0
-2 58 108 -135 0
33 65 110 -135 0
18 50 119 -135 0
17 -78 120 -135 0
-23 -48 90 135 0
35 -74 117 135 0
-7 -77 -120 135 0
39 44 112 -136 0
17 -52 -82 136 0
-22 -63 82 136 0
-36 59 -105 136 0
-12 59 -118 136 0
10 -74 119 136 0
26 -80 -86 -137 0
4 -78 -113 -137 0
37 -49 81 137 0
23 49 -90 137 0
-18 -67 97 -138 0
25 41 98 -138 0
32 54 110 -138 0
-19 -50 -117 -138 0
1 -65 -120 -138 0
-36 -68 92 138 0
-24 -75 116 138 0
27 -44 -93 -139 0
-34 55 -85 139 0
-23 76 98 139 0
-13 80 100 139 0
21 -73 116 139 0
-16 66 91 -140 0
34 -71 -93 -140 0
39 -65 -95 -140 0
19 75 95 -140 0
17 -54 -117 -140 0
-1 -52 102 140 0
-26 -80 -86 -141 0
2 54 -89 -141 0
8 -41 116 -141 0
-39 66 -117 -141 0
-6 58 101 141 0
2 -71 -109 141 0
24 44 -116 141 0
40 47 -116 141 0
-28 69 -117 141 0
-20 71 82 -142 0
-28 -45 -87 -142 0
4 65 -119 -142 0
39 43 82 142 0
-30 -74 85 142 0
-16 70 -90 142 0
1 -43 110 142 0
15 77 94 -143 0
-3 53 97 -143 0
24 -41 -115 -143 0
-36 71 -84 143 0
-36 69 92 143 0
-33 -66 94 143 0
-11 73 98 143 0
26 78 98 143 0
19 47 -104 143 0
-33 -53 -81 -144 0
-28 -72 -82 -144 0
-29 -50 88 -144 0
-4 -69 115 -144 0
-5 59 90 144 0
25 -68 -90 -145 0
40 41 -96 -145 0
-23 -69 -100 -145 0
37 -77 -110 -145 0
-25 60 81 145 0
18 -60 -96 145 0
-20 -54 109 145 0
31 56 -96 -146 0
-26 57 -102 -146 0
-24 -66 88 146 0
35 68 100 146 0
38 69 -101 146 0
2 -77 112 146 0
5 -46 89 -147 0
29 41 -92 -147 0
-35 53 -87 147 0
1 -53 -90 147 0
-18 53 92 147 0
-37 -66 -120 147 0
25 -57 -86 -148 0
34 -68 99 -148 0
-33 73 -104 -148 0
16 51 106 -148 0
-40 42 117 -148 0
20 43 -89 148 0
26 -68 -113 148 0
-10 -61 -115 148 0
-10 -75 119 148 0
9 -45 93 -149 0
-28 -54 -112 -149 0
-38 78 95 149 0
-17 -42 -101 149 0
10 63 102 -150 0
2 -64 104 -150 0
36 56 108 -150 0
-16 -74 -110 -150 0
37 65 116 -150 0
-38 66 -92 150 0
-32 78 -93 150 0
-14 53 -88 -151 0
-4 -79 94 -151 0
37 -80 -119 -151 0
-32 59 -82 151 0
-37 -60 -104 151 0
-20 -70 117 151 0
-35 -73 117 151 0
26 61 118 151 0
-21 -41 -97 -152 0
-8 -60 109 -152 0
-14 -47 -110 -152 0
5 -60 113 -152 0
-39 58 -115 -152 0
38 -72 81 152 0
-34 70 83 152 0
-4 70 -96 152 0
-37 80 -99 152 0
-1 48 -114 152 0
1 78 -116 152 0
36 -62 -83 -153 0
-29 77 83 -153 0
-39 73 -105 -153 0
9 62 -111 -153 0
-3 -62 112 -153 0
-3 -67 89 153 0
-18 -58 -94 153 0
21 -79 108 153 0
-38 76 -109 153 0
17 74 112 153 0
2 -47 -95 -154 0
-3 58 115 -154 0
20 -53 108 154 0
11 43 -81 -155 0
19 -80 84 -155 0
-28 -71 103 155 0
23 -57 88 -156 0
-6 64 106 -156 0
-25 46 117 -156 0
1 -62 117 -156 0
-20 -78 83 156 0
29 -51 -104 156 0
-35 -79 -107 156 0
-32 -58 110 156 0
25 68 118 156 0
-19 41 -94 -157 0
18 64 -98 -157 0
-7 49 102 -157 0
27 62 116 -157 0
-19 -44 -89 157 0
3 59 92 157 0
-35 55 97 157 0
-17 -73 -104 157 0
-9 52 -112 157 0
31 -57 116 157 0
-27 47 -87 -158 0
-31 56 -84 158 0
-31 -72 87 158 0
-35 76 114 158 0
22 78 114 158 0
-40 68 -81 -159 0
28 -50 91 -159 0
3 52 102 -159 0
24 -79 -119 -159 0
29 78 88 159 0
18 -62 -117 159 0
-12 66 -119 159 0
30 49 -94 -160 0
19 -57 101 -160 0
3 47 -104 -160 0
23 -60 -90 160 0
-7 67 -93 160 0
-10 53 -97 160 0
24 -45 -102 160 0
3 76 114 160 0
-37 46 117 160 0
